Ipopt 3.12.6: 

******************************************************************************
This program contains Ipopt, a library for large-scale nonlinear optimization.
 Ipopt is released as open source code under the Eclipse Public License (EPL).
         For more information visit http://projects.coin-or.org/Ipopt
******************************************************************************

This is Ipopt version 3.12.6, running with linear solver ma27.

Number of nonzeros in equality constraint Jacobian...:        0
Number of nonzeros in inequality constraint Jacobian.:        0
Number of nonzeros in Lagrangian Hessian.............:        3

Total number of variables............................:        2
                     variables with only lower bounds:        0
                variables with lower and upper bounds:        0
                     variables with only upper bounds:        0
Total number of equality constraints.................:        0
Total number of inequality constraints...............:        0
        inequality constraints with only lower bounds:        0
   inequality constraints with lower and upper bounds:        0
        inequality constraints with only upper bounds:        0

iter    objective    inf_pr   inf_du lg(mu)  ||d||  lg(rg) alpha_du alpha_pr  ls
   0  1.0369906e+02 0.00e+00 1.00e+02  -1.0 0.00e+00    -  0.00e+00 0.00e+00   0
   1  2.7265971e+01 0.00e+00 9.12e+00  -1.0 4.15e+00    -  1.00e+00 1.00e+00f  1
   2  2.6872684e+01 0.00e+00 3.03e+00  -1.0 2.53e-01    -  1.00e+00 1.00e+00f  1
   3  2.6805992e+01 0.00e+00 3.50e-01  -1.0 1.74e-01    -  1.00e+00 1.00e+00f  1
   4  2.6805279e+01 0.00e+00 3.68e-03  -1.7 1.32e-02    -  1.00e+00 1.00e+00f  1
   5  2.6805279e+01 0.00e+00 5.62e-07  -3.8 2.01e-04    -  1.00e+00 1.00e+00f  1
   6  2.6805279e+01 0.00e+00 4.46e-14  -8.6 2.29e-08    -  1.00e+00 1.00e+00f  1

Number of Iterations....: 6

                                   (scaled)                 (unscaled)
Objective...............:   8.1056838724058231e+00    2.6805278599068316e+01
Dual infeasibility......:   4.4583857441309431e-14    1.4743761767022076e-13
Constraint violation....:   0.0000000000000000e+00    0.0000000000000000e+00
Complementarity.........:   0.0000000000000000e+00    0.0000000000000000e+00
Overall NLP error.......:   4.4583857441309431e-14    1.4743761767022076e-13


Number of objective function evaluations             = 7
Number of objective gradient evaluations             = 7
Number of equality constraint evaluations            = 0
Number of inequality constraint evaluations          = 0
Number of equality constraint Jacobian evaluations   = 0
Number of inequality constraint Jacobian evaluations = 0
Number of Lagrangian Hessian evaluations             = 6
Total CPU secs in IPOPT (w/o function evaluations)   =      0.001
Total CPU secs in NLP function evaluations           =      0.000

EXIT: Optimal Solution Found.

DenseSymMatrix "RedHessian unscaled" of dimension 2 (only lower triangular part printed):
RedHessian unscaled[    0,    0]= 5.6342868542537150e-01
RedHessian unscaled[    1,    0]=-3.9324751710841016e-02
RedHessian unscaled[    1,    1]= 3.5833205513381250e-03
DenseVector "Eigenvalues of reduced hessian matrix" with 2 elements:
Eigenvalues of reduced hessian matrix[    1]= 8.3456078052550516e-04
Eigenvalues of reduced hessian matrix[    2]= 5.6617744519618407e-01
Ipopt 3.12.6: 

******************************************************************************
This program contains Ipopt, a library for large-scale nonlinear optimization.
 Ipopt is released as open source code under the Eclipse Public License (EPL).
         For more information visit http://projects.coin-or.org/Ipopt
******************************************************************************

This is Ipopt version 3.12.6, running with linear solver ma27.

Number of nonzeros in equality constraint Jacobian...:        0
Number of nonzeros in inequality constraint Jacobian.:        0
Number of nonzeros in Lagrangian Hessian.............:        3

Total number of variables............................:        2
                     variables with only lower bounds:        0
                variables with lower and upper bounds:        0
                     variables with only upper bounds:        0
Total number of equality constraints.................:        0
Total number of inequality constraints...............:        0
        inequality constraints with only lower bounds:        0
   inequality constraints with lower and upper bounds:        0
        inequality constraints with only upper bounds:        0

iter    objective    inf_pr   inf_du lg(mu)  ||d||  lg(rg) alpha_du alpha_pr  ls
   0  2.6805279e+01 0.00e+00 1.47e-13  -1.0 0.00e+00    -  0.00e+00 0.00e+00   0

Number of Iterations....: 0

                                   (scaled)                 (unscaled)
Objective...............:   2.6805278599068316e+01    2.6805278599068316e+01
Dual infeasibility......:   1.4743761767022079e-13    1.4743761767022079e-13
Constraint violation....:   0.0000000000000000e+00    0.0000000000000000e+00
Complementarity.........:   0.0000000000000000e+00    0.0000000000000000e+00
Overall NLP error.......:   1.4743761767022079e-13    1.4743761767022079e-13


Number of objective function evaluations             = 1
Number of objective gradient evaluations             = 1
Number of equality constraint evaluations            = 0
Number of inequality constraint evaluations          = 0
Number of equality constraint Jacobian evaluations   = 0
Number of inequality constraint Jacobian evaluations = 0
Number of Lagrangian Hessian evaluations             = 0
Total CPU secs in IPOPT (w/o function evaluations)   =      0.000
Total CPU secs in NLP function evaluations           =      0.000

EXIT: Optimal Solution Found.
k_aug 



[K_AUG] written by DT

: compute_inv=
I[K_AUG]...	[K_AUG_ASL]File read succesfull
I[K_AUG]...	[K_AUG_ASL]Number of Right hand sides 0
I[K_AUG]...	[K_AUG_ASL]Number of Right hand sides: 0
I[K_AUG]...	[K_AUG_ASL]Number of variables       : 2
I[K_AUG]...	[K_AUG_ASL]Number of constraints     : 0
I[K_AUG]...	[K_AUG_ASL]Number of valid n_dof     : 2
I[KMATRIX]...	[ADJUST_MU]	Warning no relevant info from the problem can predict logmu
I[KMATRIX]...	[FIND_INEQUALITIES]summary: eq: 0, leq: 0, geq: 0 
I[K_AUG]...	[K_AUG_ASL]Nonzeroes in the sparse Jacobian 0
E[KMATRIX]...	[GET_JAC_ASL]The jacobian has no structural non-zeroes; exiting
ERROR: Solver (asl) returned non-zero return code (255)
ERROR: See the solver log above for diagnostic information.
